p cnf 306 2450
1 2 3 4 5 6 7 0
-64 0
-1 65 0
-2 65 0
-1 -2 66 0
-3 67 0
-4 67 0
-3 -4 68 0
-5 69 0
-6 69 0
-5 -6 70 0
-7 71 0
-64 71 0
-7 -64 72 0
-69 73 0
-71 73 0
-69 -71 74 0
-70 75 0
-72 75 0
-70 -72 76 0
-74 77 0
-75 77 0
-74 -75 78 0
-67 79 0
-73 79 0
-67 -73 80 0
-68 81 0
-77 81 0
-68 -77 82 0
-80 83 0
-81 83 0
-80 -81 84 0
-65 85 0
-79 85 0
-65 -79 86 0
-66 87 0
-83 87 0
-66 -83 88 0
-86 89 0
-87 89 0
-86 -87 90 0
-89 0
22 23 24 25 26 27 28 0
-91 0
-22 92 0
-23 92 0
-22 -23 93 0
-24 94 0
-25 94 0
-24 -25 95 0
-26 96 0
-27 96 0
-26 -27 97 0
-28 98 0
-91 98 0
-28 -91 99 0
-96 100 0
-98 100 0
-96 -98 101 0
-97 102 0
-99 102 0
-97 -99 103 0
-101 104 0
-102 104 0
-101 -102 105 0
-94 106 0
-100 106 0
-94 -100 107 0
-95 108 0
-104 108 0
-95 -104 109 0
-107 110 0
-108 110 0
-107 -108 111 0
-92 112 0
-106 112 0
-92 -106 113 0
-93 114 0
-110 114 0
-93 -110 115 0
-113 116 0
-114 116 0
-113 -114 117 0
-116 0
43 44 45 46 47 48 49 0
-118 0
-43 119 0
-44 119 0
-43 -44 120 0
-45 121 0
-46 121 0
-45 -46 122 0
-47 123 0
-48 123 0
-47 -48 124 0
-49 125 0
-118 125 0
-49 -118 126 0
-123 127 0
-125 127 0
-123 -125 128 0
-124 129 0
-126 129 0
-124 -126 130 0
-128 131 0
-129 131 0
-128 -129 132 0
-121 133 0
-127 133 0
-121 -127 134 0
-122 135 0
-131 135 0
-122 -131 136 0
-134 137 0
-135 137 0
-134 -135 138 0
-119 139 0
-133 139 0
-119 -133 140 0
-120 141 0
-137 141 0
-120 -137 142 0
-140 143 0
-141 143 0
-140 -141 144 0
-143 0
8 9 10 11 12 13 14 0
-145 0
-8 146 0
-9 146 0
-8 -9 147 0
-10 148 0
-11 148 0
-10 -11 149 0
-12 150 0
-13 150 0
-12 -13 151 0
-14 152 0
-145 152 0
-14 -145 153 0
-150 154 0
-152 154 0
-150 -152 155 0
-151 156 0
-153 156 0
-151 -153 157 0
-155 158 0
-156 158 0
-155 -156 159 0
-148 160 0
-154 160 0
-148 -154 161 0
-149 162 0
-158 162 0
-149 -158 163 0
-161 164 0
-162 164 0
-161 -162 165 0
-146 166 0
-160 166 0
-146 -160 167 0
-147 168 0
-164 168 0
-147 -164 169 0
-167 170 0
-168 170 0
-167 -168 171 0
-170 0
29 30 31 32 33 34 35 0
-172 0
-29 173 0
-30 173 0
-29 -30 174 0
-31 175 0
-32 175 0
-31 -32 176 0
-33 177 0
-34 177 0
-33 -34 178 0
-35 179 0
-172 179 0
-35 -172 180 0
-177 181 0
-179 181 0
-177 -179 182 0
-178 183 0
-180 183 0
-178 -180 184 0
-182 185 0
-183 185 0
-182 -183 186 0
-175 187 0
-181 187 0
-175 -181 188 0
-176 189 0
-185 189 0
-176 -185 190 0
-188 191 0
-189 191 0
-188 -189 192 0
-173 193 0
-187 193 0
-173 -187 194 0
-174 195 0
-191 195 0
-174 -191 196 0
-194 197 0
-195 197 0
-194 -195 198 0
-197 0
50 51 52 53 54 55 56 0
-199 0
-50 200 0
-51 200 0
-50 -51 201 0
-52 202 0
-53 202 0
-52 -53 203 0
-54 204 0
-55 204 0
-54 -55 205 0
-56 206 0
-199 206 0
-56 -199 207 0
-204 208 0
-206 208 0
-204 -206 209 0
-205 210 0
-207 210 0
-205 -207 211 0
-209 212 0
-210 212 0
-209 -210 213 0
-202 214 0
-208 214 0
-202 -208 215 0
-203 216 0
-212 216 0
-203 -212 217 0
-215 218 0
-216 218 0
-215 -216 219 0
-200 220 0
-214 220 0
-200 -214 221 0
-201 222 0
-218 222 0
-201 -218 223 0
-221 224 0
-222 224 0
-221 -222 225 0
-224 0
15 16 17 18 19 20 21 0
-226 0
-15 227 0
-16 227 0
-15 -16 228 0
-17 229 0
-18 229 0
-17 -18 230 0
-19 231 0
-20 231 0
-19 -20 232 0
-21 233 0
-226 233 0
-21 -226 234 0
-231 235 0
-233 235 0
-231 -233 236 0
-232 237 0
-234 237 0
-232 -234 238 0
-236 239 0
-237 239 0
-236 -237 240 0
-229 241 0
-235 241 0
-229 -235 242 0
-230 243 0
-239 243 0
-230 -239 244 0
-242 245 0
-243 245 0
-242 -243 246 0
-227 247 0
-241 247 0
-227 -241 248 0
-228 249 0
-245 249 0
-228 -245 250 0
-248 251 0
-249 251 0
-248 -249 252 0
-251 0
36 37 38 39 40 41 42 0
-253 0
-36 254 0
-37 254 0
-36 -37 255 0
-38 256 0
-39 256 0
-38 -39 257 0
-40 258 0
-41 258 0
-40 -41 259 0
-42 260 0
-253 260 0
-42 -253 261 0
-258 262 0
-260 262 0
-258 -260 263 0
-259 264 0
-261 264 0
-259 -261 265 0
-263 266 0
-264 266 0
-263 -264 267 0
-256 268 0
-262 268 0
-256 -262 269 0
-257 270 0
-266 270 0
-257 -266 271 0
-269 272 0
-270 272 0
-269 -270 273 0
-254 274 0
-268 274 0
-254 -268 275 0
-255 276 0
-272 276 0
-255 -272 277 0
-275 278 0
-276 278 0
-275 -276 279 0
-278 0
57 58 59 60 61 62 63 0
-280 0
-57 281 0
-58 281 0
-57 -58 282 0
-59 283 0
-60 283 0
-59 -60 284 0
-61 285 0
-62 285 0
-61 -62 286 0
-63 287 0
-280 287 0
-63 -280 288 0
-285 289 0
-287 289 0
-285 -287 290 0
-286 291 0
-288 291 0
-286 -288 292 0
-290 293 0
-291 293 0
-290 -291 294 0
-283 295 0
-289 295 0
-283 -289 296 0
-284 297 0
-293 297 0
-284 -293 298 0
-296 299 0
-297 299 0
-296 -297 300 0
-281 301 0
-295 301 0
-281 -295 302 0
-282 303 0
-299 303 0
-282 -299 304 0
-302 305 0
-303 305 0
-302 -303 306 0
-305 0
-1 -22 -43 9 0
-1 -23 -43 9 0
-1 -24 -43 9 0
-1 -25 -43 9 0
-1 -26 -43 9 0
-1 -27 -43 9 0
-1 -28 -43 9 0
-1 -22 -44 9 0
-1 -23 -44 9 0
-1 -24 -44 9 0
-1 -25 -44 9 0
-1 -26 -44 9 0
-1 -27 -44 9 0
-1 -28 -44 9 0
-1 -22 -45 9 0
-1 -23 -45 9 0
-1 -24 -45 9 0
-1 -25 -45 9 0
-1 -26 -45 9 0
-1 -27 -45 9 0
-1 -28 -45 9 0
-1 -22 -46 9 0
-1 -23 -46 9 0
-1 -24 -46 9 0
-1 -25 -46 9 0
-1 -26 -46 9 0
-1 -27 -46 9 0
-1 -28 -46 9 0
-1 -22 -47 9 0
-1 -23 -47 9 0
-1 -24 -47 9 0
-1 -25 -47 9 0
-1 -26 -47 9 0
-1 -27 -47 9 0
-1 -28 -47 9 0
-1 -22 -48 9 0
-1 -23 -48 9 0
-1 -24 -48 9 0
-1 -25 -48 9 0
-1 -26 -48 9 0
-1 -27 -48 9 0
-1 -28 -48 9 0
-1 -22 -49 9 0
-1 -23 -49 9 0
-1 -24 -49 9 0
-1 -25 -49 9 0
-1 -26 -49 9 0
-1 -27 -49 9 0
-1 -28 -49 9 0
-2 -22 -43 9 0
-2 -23 -43 9 0
-2 -24 -43 9 0
-2 -25 -43 9 0
-2 -26 -43 9 0
-2 -27 -43 9 0
-2 -28 -43 9 0
-2 -22 -44 9 0
-2 -23 -44 10 0
-2 -24 -44 10 0
-2 -25 -44 10 0
-2 -26 -44 10 0
-2 -27 -44 10 0
-2 -28 -44 10 0
-2 -22 -45 9 0
-2 -23 -45 10 0
-2 -24 -45 10 0
-2 -25 -45 10 0
-2 -26 -45 10 0
-2 -27 -45 10 0
-2 -28 -45 10 0
-2 -22 -46 9 0
-2 -23 -46 10 0
-2 -24 -46 10 0
-2 -25 -46 10 0
-2 -26 -46 10 0
-2 -27 -46 10 0
-2 -28 -46 10 0
-2 -22 -47 9 0
-2 -23 -47 10 0
-2 -24 -47 10 0
-2 -25 -47 10 0
-2 -26 -47 10 0
-2 -27 -47 10 0
-2 -28 -47 10 0
-2 -22 -48 9 0
-2 -23 -48 10 0
-2 -24 -48 10 0
-2 -25 -48 10 0
-2 -26 -48 10 0
-2 -27 -48 10 0
-2 -28 -48 10 0
-2 -22 -49 9 0
-2 -23 -49 10 0
-2 -24 -49 10 0
-2 -25 -49 10 0
-2 -26 -49 10 0
-2 -27 -49 10 0
-2 -28 -49 10 0
-3 -22 -43 9 0
-3 -23 -43 9 0
-3 -24 -43 9 0
-3 -25 -43 9 0
-3 -26 -43 9 0
-3 -27 -43 9 0
-3 -28 -43 9 0
-3 -22 -44 9 0
-3 -23 -44 10 0
-3 -24 -44 10 0
-3 -25 -44 10 0
-3 -26 -44 10 0
-3 -27 -44 10 0
-3 -28 -44 10 0
-3 -22 -45 9 0
-3 -23 -45 10 0
-3 -24 -45 11 0
-3 -25 -45 11 0
-3 -26 -45 11 0
-3 -27 -45 11 0
-3 -28 -45 11 0
-3 -22 -46 9 0
-3 -23 -46 10 0
-3 -24 -46 11 0
-3 -25 -46 11 0
-3 -26 -46 11 0
-3 -27 -46 11 0
-3 -28 -46 11 0
-3 -22 -47 9 0
-3 -23 -47 10 0
-3 -24 -47 11 0
-3 -25 -47 11 0
-3 -26 -47 11 0
-3 -27 -47 11 0
-3 -28 -47 11 0
-3 -22 -48 9 0
-3 -23 -48 10 0
-3 -24 -48 11 0
-3 -25 -48 11 0
-3 -26 -48 11 0
-3 -27 -48 11 0
-3 -28 -48 11 0
-3 -22 -49 9 0
-3 -23 -49 10 0
-3 -24 -49 11 0
-3 -25 -49 11 0
-3 -26 -49 11 0
-3 -27 -49 11 0
-3 -28 -49 11 0
-4 -22 -43 9 0
-4 -23 -43 9 0
-4 -24 -43 9 0
-4 -25 -43 9 0
-4 -26 -43 9 0
-4 -27 -43 9 0
-4 -28 -43 9 0
-4 -22 -44 9 0
-4 -23 -44 10 0
-4 -24 -44 10 0
-4 -25 -44 10 0
-4 -26 -44 10 0
-4 -27 -44 10 0
-4 -28 -44 10 0
-4 -22 -45 9 0
-4 -23 -45 10 0
-4 -24 -45 11 0
-4 -25 -45 11 0
-4 -26 -45 11 0
-4 -27 -45 11 0
-4 -28 -45 11 0
-4 -22 -46 9 0
-4 -23 -46 10 0
-4 -24 -46 11 0
-4 -25 -46 12 0
-4 -26 -46 12 0
-4 -27 -46 12 0
-4 -28 -46 12 0
-4 -22 -47 9 0
-4 -23 -47 10 0
-4 -24 -47 11 0
-4 -25 -47 12 0
-4 -26 -47 12 0
-4 -27 -47 12 0
-4 -28 -47 12 0
-4 -22 -48 9 0
-4 -23 -48 10 0
-4 -24 -48 11 0
-4 -25 -48 12 0
-4 -26 -48 12 0
-4 -27 -48 12 0
-4 -28 -48 12 0
-4 -22 -49 9 0
-4 -23 -49 10 0
-4 -24 -49 11 0
-4 -25 -49 12 0
-4 -26 -49 12 0
-4 -27 -49 12 0
-4 -28 -49 12 0
-5 -22 -43 9 0
-5 -23 -43 9 0
-5 -24 -43 9 0
-5 -25 -43 9 0
-5 -26 -43 9 0
-5 -27 -43 9 0
-5 -28 -43 9 0
-5 -22 -44 9 0
-5 -23 -44 10 0
-5 -24 -44 10 0
-5 -25 -44 10 0
-5 -26 -44 10 0
-5 -27 -44 10 0
-5 -28 -44 10 0
-5 -22 -45 9 0
-5 -23 -45 10 0
-5 -24 -45 11 0
-5 -25 -45 11 0
-5 -26 -45 11 0
-5 -27 -45 11 0
-5 -28 -45 11 0
-5 -22 -46 9 0
-5 -23 -46 10 0
-5 -24 -46 11 0
-5 -25 -46 12 0
-5 -26 -46 12 0
-5 -27 -46 12 0
-5 -28 -46 12 0
-5 -22 -47 9 0
-5 -23 -47 10 0
-5 -24 -47 11 0
-5 -25 -47 12 0
-5 -26 -47 13 0
-5 -27 -47 13 0
-5 -28 -47 13 0
-5 -22 -48 9 0
-5 -23 -48 10 0
-5 -24 -48 11 0
-5 -25 -48 12 0
-5 -26 -48 13 0
-5 -27 -48 13 0
-5 -28 -48 13 0
-5 -22 -49 9 0
-5 -23 -49 10 0
-5 -24 -49 11 0
-5 -25 -49 12 0
-5 -26 -49 13 0
-5 -27 -49 13 0
-5 -28 -49 13 0
-6 -22 -43 9 0
-6 -23 -43 9 0
-6 -24 -43 9 0
-6 -25 -43 9 0
-6 -26 -43 9 0
-6 -27 -43 9 0
-6 -28 -43 9 0
-6 -22 -44 9 0
-6 -23 -44 10 0
-6 -24 -44 10 0
-6 -25 -44 10 0
-6 -26 -44 10 0
-6 -27 -44 10 0
-6 -28 -44 10 0
-6 -22 -45 9 0
-6 -23 -45 10 0
-6 -24 -45 11 0
-6 -25 -45 11 0
-6 -26 -45 11 0
-6 -27 -45 11 0
-6 -28 -45 11 0
-6 -22 -46 9 0
-6 -23 -46 10 0
-6 -24 -46 11 0
-6 -25 -46 12 0
-6 -26 -46 12 0
-6 -27 -46 12 0
-6 -28 -46 12 0
-6 -22 -47 9 0
-6 -23 -47 10 0
-6 -24 -47 11 0
-6 -25 -47 12 0
-6 -26 -47 13 0
-6 -27 -47 13 0
-6 -28 -47 13 0
-6 -22 -48 9 0
-6 -23 -48 10 0
-6 -24 -48 11 0
-6 -25 -48 12 0
-6 -26 -48 13 0
-6 -27 -48 14 0
-6 -28 -48 14 0
-6 -22 -49 9 0
-6 -23 -49 10 0
-6 -24 -49 11 0
-6 -25 -49 12 0
-6 -26 -49 13 0
-6 -27 -49 14 0
-6 -28 -49 14 0
-7 -22 -43 9 0
-7 -23 -43 9 0
-7 -24 -43 9 0
-7 -25 -43 9 0
-7 -26 -43 9 0
-7 -27 -43 9 0
-7 -28 -43 9 0
-7 -22 -44 9 0
-7 -23 -44 10 0
-7 -24 -44 10 0
-7 -25 -44 10 0
-7 -26 -44 10 0
-7 -27 -44 10 0
-7 -28 -44 10 0
-7 -22 -45 9 0
-7 -23 -45 10 0
-7 -24 -45 11 0
-7 -25 -45 11 0
-7 -26 -45 11 0
-7 -27 -45 11 0
-7 -28 -45 11 0
-7 -22 -46 9 0
-7 -23 -46 10 0
-7 -24 -46 11 0
-7 -25 -46 12 0
-7 -26 -46 12 0
-7 -27 -46 12 0
-7 -28 -46 12 0
-7 -22 -47 9 0
-7 -23 -47 10 0
-7 -24 -47 11 0
-7 -25 -47 12 0
-7 -26 -47 13 0
-7 -27 -47 13 0
-7 -28 -47 13 0
-7 -22 -48 9 0
-7 -23 -48 10 0
-7 -24 -48 11 0
-7 -25 -48 12 0
-7 -26 -48 13 0
-7 -27 -48 14 0
-7 -28 -48 14 0
-7 -22 -49 9 0
-7 -23 -49 10 0
-7 -24 -49 11 0
-7 -25 -49 12 0
-7 -26 -49 13 0
-7 -27 -49 14 0
-7 -28 -49 8 0
-22 -1 -43 30 0
-22 -2 -43 30 0
-22 -3 -43 30 0
-22 -4 -43 30 0
-22 -5 -43 30 0
-22 -6 -43 30 0
-22 -7 -43 30 0
-22 -1 -44 30 0
-22 -2 -44 30 0
-22 -3 -44 30 0
-22 -4 -44 30 0
-22 -5 -44 30 0
-22 -6 -44 30 0
-22 -7 -44 30 0
-22 -1 -45 30 0
-22 -2 -45 30 0
-22 -3 -45 30 0
-22 -4 -45 30 0
-22 -5 -45 30 0
-22 -6 -45 30 0
-22 -7 -45 30 0
-22 -1 -46 30 0
-22 -2 -46 30 0
-22 -3 -46 30 0
-22 -4 -46 30 0
-22 -5 -46 30 0
-22 -6 -46 30 0
-22 -7 -46 30 0
-22 -1 -47 30 0
-22 -2 -47 30 0
-22 -3 -47 30 0
-22 -4 -47 30 0
-22 -5 -47 30 0
-22 -6 -47 30 0
-22 -7 -47 30 0
-22 -1 -48 30 0
-22 -2 -48 30 0
-22 -3 -48 30 0
-22 -4 -48 30 0
-22 -5 -48 30 0
-22 -6 -48 30 0
-22 -7 -48 30 0
-22 -1 -49 30 0
-22 -2 -49 30 0
-22 -3 -49 30 0
-22 -4 -49 30 0
-22 -5 -49 30 0
-22 -6 -49 30 0
-22 -7 -49 30 0
-23 -1 -43 30 0
-23 -2 -43 30 0
-23 -3 -43 30 0
-23 -4 -43 30 0
-23 -5 -43 30 0
-23 -6 -43 30 0
-23 -7 -43 30 0
-23 -1 -44 30 0
-23 -2 -44 31 0
-23 -3 -44 31 0
-23 -4 -44 31 0
-23 -5 -44 31 0
-23 -6 -44 31 0
-23 -7 -44 31 0
-23 -1 -45 30 0
-23 -2 -45 31 0
-23 -3 -45 31 0
-23 -4 -45 31 0
-23 -5 -45 31 0
-23 -6 -45 31 0
-23 -7 -45 31 0
-23 -1 -46 30 0
-23 -2 -46 31 0
-23 -3 -46 31 0
-23 -4 -46 31 0
-23 -5 -46 31 0
-23 -6 -46 31 0
-23 -7 -46 31 0
-23 -1 -47 30 0
-23 -2 -47 31 0
-23 -3 -47 31 0
-23 -4 -47 31 0
-23 -5 -47 31 0
-23 -6 -47 31 0
-23 -7 -47 31 0
-23 -1 -48 30 0
-23 -2 -48 31 0
-23 -3 -48 31 0
-23 -4 -48 31 0
-23 -5 -48 31 0
-23 -6 -48 31 0
-23 -7 -48 31 0
-23 -1 -49 30 0
-23 -2 -49 31 0
-23 -3 -49 31 0
-23 -4 -49 31 0
-23 -5 -49 31 0
-23 -6 -49 31 0
-23 -7 -49 31 0
-24 -1 -43 30 0
-24 -2 -43 30 0
-24 -3 -43 30 0
-24 -4 -43 30 0
-24 -5 -43 30 0
-24 -6 -43 30 0
-24 -7 -43 30 0
-24 -1 -44 30 0
-24 -2 -44 31 0
-24 -3 -44 31 0
-24 -4 -44 31 0
-24 -5 -44 31 0
-24 -6 -44 31 0
-24 -7 -44 31 0
-24 -1 -45 30 0
-24 -2 -45 31 0
-24 -3 -45 32 0
-24 -4 -45 32 0
-24 -5 -45 32 0
-24 -6 -45 32 0
-24 -7 -45 32 0
-24 -1 -46 30 0
-24 -2 -46 31 0
-24 -3 -46 32 0
-24 -4 -46 32 0
-24 -5 -46 32 0
-24 -6 -46 32 0
-24 -7 -46 32 0
-24 -1 -47 30 0
-24 -2 -47 31 0
-24 -3 -47 32 0
-24 -4 -47 32 0
-24 -5 -47 32 0
-24 -6 -47 32 0
-24 -7 -47 32 0
-24 -1 -48 30 0
-24 -2 -48 31 0
-24 -3 -48 32 0
-24 -4 -48 32 0
-24 -5 -48 32 0
-24 -6 -48 32 0
-24 -7 -48 32 0
-24 -1 -49 30 0
-24 -2 -49 31 0
-24 -3 -49 32 0
-24 -4 -49 32 0
-24 -5 -49 32 0
-24 -6 -49 32 0
-24 -7 -49 32 0
-25 -1 -43 30 0
-25 -2 -43 30 0
-25 -3 -43 30 0
-25 -4 -43 30 0
-25 -5 -43 30 0
-25 -6 -43 30 0
-25 -7 -43 30 0
-25 -1 -44 30 0
-25 -2 -44 31 0
-25 -3 -44 31 0
-25 -4 -44 31 0
-25 -5 -44 31 0
-25 -6 -44 31 0
-25 -7 -44 31 0
-25 -1 -45 30 0
-25 -2 -45 31 0
-25 -3 -45 32 0
-25 -4 -45 32 0
-25 -5 -45 32 0
-25 -6 -45 32 0
-25 -7 -45 32 0
-25 -1 -46 30 0
-25 -2 -46 31 0
-25 -3 -46 32 0
-25 -4 -46 33 0
-25 -5 -46 33 0
-25 -6 -46 33 0
-25 -7 -46 33 0
-25 -1 -47 30 0
-25 -2 -47 31 0
-25 -3 -47 32 0
-25 -4 -47 33 0
-25 -5 -47 33 0
-25 -6 -47 33 0
-25 -7 -47 33 0
-25 -1 -48 30 0
-25 -2 -48 31 0
-25 -3 -48 32 0
-25 -4 -48 33 0
-25 -5 -48 33 0
-25 -6 -48 33 0
-25 -7 -48 33 0
-25 -1 -49 30 0
-25 -2 -49 31 0
-25 -3 -49 32 0
-25 -4 -49 33 0
-25 -5 -49 33 0
-25 -6 -49 33 0
-25 -7 -49 33 0
-26 -1 -43 30 0
-26 -2 -43 30 0
-26 -3 -43 30 0
-26 -4 -43 30 0
-26 -5 -43 30 0
-26 -6 -43 30 0
-26 -7 -43 30 0
-26 -1 -44 30 0
-26 -2 -44 31 0
-26 -3 -44 31 0
-26 -4 -44 31 0
-26 -5 -44 31 0
-26 -6 -44 31 0
-26 -7 -44 31 0
-26 -1 -45 30 0
-26 -2 -45 31 0
-26 -3 -45 32 0
-26 -4 -45 32 0
-26 -5 -45 32 0
-26 -6 -45 32 0
-26 -7 -45 32 0
-26 -1 -46 30 0
-26 -2 -46 31 0
-26 -3 -46 32 0
-26 -4 -46 33 0
-26 -5 -46 33 0
-26 -6 -46 33 0
-26 -7 -46 33 0
-26 -1 -47 30 0
-26 -2 -47 31 0
-26 -3 -47 32 0
-26 -4 -47 33 0
-26 -5 -47 34 0
-26 -6 -47 34 0
-26 -7 -47 34 0
-26 -1 -48 30 0
-26 -2 -48 31 0
-26 -3 -48 32 0
-26 -4 -48 33 0
-26 -5 -48 34 0
-26 -6 -48 34 0
-26 -7 -48 34 0
-26 -1 -49 30 0
-26 -2 -49 31 0
-26 -3 -49 32 0
-26 -4 -49 33 0
-26 -5 -49 34 0
-26 -6 -49 34 0
-26 -7 -49 34 0
-27 -1 -43 30 0
-27 -2 -43 30 0
-27 -3 -43 30 0
-27 -4 -43 30 0
-27 -5 -43 30 0
-27 -6 -43 30 0
-27 -7 -43 30 0
-27 -1 -44 30 0
-27 -2 -44 31 0
-27 -3 -44 31 0
-27 -4 -44 31 0
-27 -5 -44 31 0
-27 -6 -44 31 0
-27 -7 -44 31 0
-27 -1 -45 30 0
-27 -2 -45 31 0
-27 -3 -45 32 0
-27 -4 -45 32 0
-27 -5 -45 32 0
-27 -6 -45 32 0
-27 -7 -45 32 0
-27 -1 -46 30 0
-27 -2 -46 31 0
-27 -3 -46 32 0
-27 -4 -46 33 0
-27 -5 -46 33 0
-27 -6 -46 33 0
-27 -7 -46 33 0
-27 -1 -47 30 0
-27 -2 -47 31 0
-27 -3 -47 32 0
-27 -4 -47 33 0
-27 -5 -47 34 0
-27 -6 -47 34 0
-27 -7 -47 34 0
-27 -1 -48 30 0
-27 -2 -48 31 0
-27 -3 -48 32 0
-27 -4 -48 33 0
-27 -5 -48 34 0
-27 -6 -48 35 0
-27 -7 -48 35 0
-27 -1 -49 30 0
-27 -2 -49 31 0
-27 -3 -49 32 0
-27 -4 -49 33 0
-27 -5 -49 34 0
-27 -6 -49 35 0
-27 -7 -49 35 0
-28 -1 -43 30 0
-28 -2 -43 30 0
-28 -3 -43 30 0
-28 -4 -43 30 0
-28 -5 -43 30 0
-28 -6 -43 30 0
-28 -7 -43 30 0
-28 -1 -44 30 0
-28 -2 -44 31 0
-28 -3 -44 31 0
-28 -4 -44 31 0
-28 -5 -44 31 0
-28 -6 -44 31 0
-28 -7 -44 31 0
-28 -1 -45 30 0
-28 -2 -45 31 0
-28 -3 -45 32 0
-28 -4 -45 32 0
-28 -5 -45 32 0
-28 -6 -45 32 0
-28 -7 -45 32 0
-28 -1 -46 30 0
-28 -2 -46 31 0
-28 -3 -46 32 0
-28 -4 -46 33 0
-28 -5 -46 33 0
-28 -6 -46 33 0
-28 -7 -46 33 0
-28 -1 -47 30 0
-28 -2 -47 31 0
-28 -3 -47 32 0
-28 -4 -47 33 0
-28 -5 -47 34 0
-28 -6 -47 34 0
-28 -7 -47 34 0
-28 -1 -48 30 0
-28 -2 -48 31 0
-28 -3 -48 32 0
-28 -4 -48 33 0
-28 -5 -48 34 0
-28 -6 -48 35 0
-28 -7 -48 35 0
-28 -1 -49 30 0
-28 -2 -49 31 0
-28 -3 -49 32 0
-28 -4 -49 33 0
-28 -5 -49 34 0
-28 -6 -49 35 0
-28 -7 -49 29 0
-43 -1 -22 51 0
-43 -2 -22 51 0
-43 -3 -22 51 0
-43 -4 -22 51 0
-43 -5 -22 51 0
-43 -6 -22 51 0
-43 -7 -22 51 0
-43 -1 -23 51 0
-43 -2 -23 51 0
-43 -3 -23 51 0
-43 -4 -23 51 0
-43 -5 -23 51 0
-43 -6 -23 51 0
-43 -7 -23 51 0
-43 -1 -24 51 0
-43 -2 -24 51 0
-43 -3 -24 51 0
-43 -4 -24 51 0
-43 -5 -24 51 0
-43 -6 -24 51 0
-43 -7 -24 51 0
-43 -1 -25 51 0
-43 -2 -25 51 0
-43 -3 -25 51 0
-43 -4 -25 51 0
-43 -5 -25 51 0
-43 -6 -25 51 0
-43 -7 -25 51 0
-43 -1 -26 51 0
-43 -2 -26 51 0
-43 -3 -26 51 0
-43 -4 -26 51 0
-43 -5 -26 51 0
-43 -6 -26 51 0
-43 -7 -26 51 0
-43 -1 -27 51 0
-43 -2 -27 51 0
-43 -3 -27 51 0
-43 -4 -27 51 0
-43 -5 -27 51 0
-43 -6 -27 51 0
-43 -7 -27 51 0
-43 -1 -28 51 0
-43 -2 -28 51 0
-43 -3 -28 51 0
-43 -4 -28 51 0
-43 -5 -28 51 0
-43 -6 -28 51 0
-43 -7 -28 51 0
-44 -1 -22 51 0
-44 -2 -22 51 0
-44 -3 -22 51 0
-44 -4 -22 51 0
-44 -5 -22 51 0
-44 -6 -22 51 0
-44 -7 -22 51 0
-44 -1 -23 51 0
-44 -2 -23 52 0
-44 -3 -23 52 0
-44 -4 -23 52 0
-44 -5 -23 52 0
-44 -6 -23 52 0
-44 -7 -23 52 0
-44 -1 -24 51 0
-44 -2 -24 52 0
-44 -3 -24 52 0
-44 -4 -24 52 0
-44 -5 -24 52 0
-44 -6 -24 52 0
-44 -7 -24 52 0
-44 -1 -25 51 0
-44 -2 -25 52 0
-44 -3 -25 52 0
-44 -4 -25 52 0
-44 -5 -25 52 0
-44 -6 -25 52 0
-44 -7 -25 52 0
-44 -1 -26 51 0
-44 -2 -26 52 0
-44 -3 -26 52 0
-44 -4 -26 52 0
-44 -5 -26 52 0
-44 -6 -26 52 0
-44 -7 -26 52 0
-44 -1 -27 51 0
-44 -2 -27 52 0
-44 -3 -27 52 0
-44 -4 -27 52 0
-44 -5 -27 52 0
-44 -6 -27 52 0
-44 -7 -27 52 0
-44 -1 -28 51 0
-44 -2 -28 52 0
-44 -3 -28 52 0
-44 -4 -28 52 0
-44 -5 -28 52 0
-44 -6 -28 52 0
-44 -7 -28 52 0
-45 -1 -22 51 0
-45 -2 -22 51 0
-45 -3 -22 51 0
-45 -4 -22 51 0
-45 -5 -22 51 0
-45 -6 -22 51 0
-45 -7 -22 51 0
-45 -1 -23 51 0
-45 -2 -23 52 0
-45 -3 -23 52 0
-45 -4 -23 52 0
-45 -5 -23 52 0
-45 -6 -23 52 0
-45 -7 -23 52 0
-45 -1 -24 51 0
-45 -2 -24 52 0
-45 -3 -24 53 0
-45 -4 -24 53 0
-45 -5 -24 53 0
-45 -6 -24 53 0
-45 -7 -24 53 0
-45 -1 -25 51 0
-45 -2 -25 52 0
-45 -3 -25 53 0
-45 -4 -25 53 0
-45 -5 -25 53 0
-45 -6 -25 53 0
-45 -7 -25 53 0
-45 -1 -26 51 0
-45 -2 -26 52 0
-45 -3 -26 53 0
-45 -4 -26 53 0
-45 -5 -26 53 0
-45 -6 -26 53 0
-45 -7 -26 53 0
-45 -1 -27 51 0
-45 -2 -27 52 0
-45 -3 -27 53 0
-45 -4 -27 53 0
-45 -5 -27 53 0
-45 -6 -27 53 0
-45 -7 -27 53 0
-45 -1 -28 51 0
-45 -2 -28 52 0
-45 -3 -28 53 0
-45 -4 -28 53 0
-45 -5 -28 53 0
-45 -6 -28 53 0
-45 -7 -28 53 0
-46 -1 -22 51 0
-46 -2 -22 51 0
-46 -3 -22 51 0
-46 -4 -22 51 0
-46 -5 -22 51 0
-46 -6 -22 51 0
-46 -7 -22 51 0
-46 -1 -23 51 0
-46 -2 -23 52 0
-46 -3 -23 52 0
-46 -4 -23 52 0
-46 -5 -23 52 0
-46 -6 -23 52 0
-46 -7 -23 52 0
-46 -1 -24 51 0
-46 -2 -24 52 0
-46 -3 -24 53 0
-46 -4 -24 53 0
-46 -5 -24 53 0
-46 -6 -24 53 0
-46 -7 -24 53 0
-46 -1 -25 51 0
-46 -2 -25 52 0
-46 -3 -25 53 0
-46 -4 -25 54 0
-46 -5 -25 54 0
-46 -6 -25 54 0
-46 -7 -25 54 0
-46 -1 -26 51 0
-46 -2 -26 52 0
-46 -3 -26 53 0
-46 -4 -26 54 0
-46 -5 -26 54 0
-46 -6 -26 54 0
-46 -7 -26 54 0
-46 -1 -27 51 0
-46 -2 -27 52 0
-46 -3 -27 53 0
-46 -4 -27 54 0
-46 -5 -27 54 0
-46 -6 -27 54 0
-46 -7 -27 54 0
-46 -1 -28 51 0
-46 -2 -28 52 0
-46 -3 -28 53 0
-46 -4 -28 54 0
-46 -5 -28 54 0
-46 -6 -28 54 0
-46 -7 -28 54 0
-47 -1 -22 51 0
-47 -2 -22 51 0
-47 -3 -22 51 0
-47 -4 -22 51 0
-47 -5 -22 51 0
-47 -6 -22 51 0
-47 -7 -22 51 0
-47 -1 -23 51 0
-47 -2 -23 52 0
-47 -3 -23 52 0
-47 -4 -23 52 0
-47 -5 -23 52 0
-47 -6 -23 52 0
-47 -7 -23 52 0
-47 -1 -24 51 0
-47 -2 -24 52 0
-47 -3 -24 53 0
-47 -4 -24 53 0
-47 -5 -24 53 0
-47 -6 -24 53 0
-47 -7 -24 53 0
-47 -1 -25 51 0
-47 -2 -25 52 0
-47 -3 -25 53 0
-47 -4 -25 54 0
-47 -5 -25 54 0
-47 -6 -25 54 0
-47 -7 -25 54 0
-47 -1 -26 51 0
-47 -2 -26 52 0
-47 -3 -26 53 0
-47 -4 -26 54 0
-47 -5 -26 55 0
-47 -6 -26 55 0
-47 -7 -26 55 0
-47 -1 -27 51 0
-47 -2 -27 52 0
-47 -3 -27 53 0
-47 -4 -27 54 0
-47 -5 -27 55 0
-47 -6 -27 55 0
-47 -7 -27 55 0
-47 -1 -28 51 0
-47 -2 -28 52 0
-47 -3 -28 53 0
-47 -4 -28 54 0
-47 -5 -28 55 0
-47 -6 -28 55 0
-47 -7 -28 55 0
-48 -1 -22 51 0
-48 -2 -22 51 0
-48 -3 -22 51 0
-48 -4 -22 51 0
-48 -5 -22 51 0
-48 -6 -22 51 0
-48 -7 -22 51 0
-48 -1 -23 51 0
-48 -2 -23 52 0
-48 -3 -23 52 0
-48 -4 -23 52 0
-48 -5 -23 52 0
-48 -6 -23 52 0
-48 -7 -23 52 0
-48 -1 -24 51 0
-48 -2 -24 52 0
-48 -3 -24 53 0
-48 -4 -24 53 0
-48 -5 -24 53 0
-48 -6 -24 53 0
-48 -7 -24 53 0
-48 -1 -25 51 0
-48 -2 -25 52 0
-48 -3 -25 53 0
-48 -4 -25 54 0
-48 -5 -25 54 0
-48 -6 -25 54 0
-48 -7 -25 54 0
-48 -1 -26 51 0
-48 -2 -26 52 0
-48 -3 -26 53 0
-48 -4 -26 54 0
-48 -5 -26 55 0
-48 -6 -26 55 0
-48 -7 -26 55 0
-48 -1 -27 51 0
-48 -2 -27 52 0
-48 -3 -27 53 0
-48 -4 -27 54 0
-48 -5 -27 55 0
-48 -6 -27 56 0
-48 -7 -27 56 0
-48 -1 -28 51 0
-48 -2 -28 52 0
-48 -3 -28 53 0
-48 -4 -28 54 0
-48 -5 -28 55 0
-48 -6 -28 56 0
-48 -7 -28 56 0
-49 -1 -22 51 0
-49 -2 -22 51 0
-49 -3 -22 51 0
-49 -4 -22 51 0
-49 -5 -22 51 0
-49 -6 -22 51 0
-49 -7 -22 51 0
-49 -1 -23 51 0
-49 -2 -23 52 0
-49 -3 -23 52 0
-49 -4 -23 52 0
-49 -5 -23 52 0
-49 -6 -23 52 0
-49 -7 -23 52 0
-49 -1 -24 51 0
-49 -2 -24 52 0
-49 -3 -24 53 0
-49 -4 -24 53 0
-49 -5 -24 53 0
-49 -6 -24 53 0
-49 -7 -24 53 0
-49 -1 -25 51 0
-49 -2 -25 52 0
-49 -3 -25 53 0
-49 -4 -25 54 0
-49 -5 -25 54 0
-49 -6 -25 54 0
-49 -7 -25 54 0
-49 -1 -26 51 0
-49 -2 -26 52 0
-49 -3 -26 53 0
-49 -4 -26 54 0
-49 -5 -26 55 0
-49 -6 -26 55 0
-49 -7 -26 55 0
-49 -1 -27 51 0
-49 -2 -27 52 0
-49 -3 -27 53 0
-49 -4 -27 54 0
-49 -5 -27 55 0
-49 -6 -27 56 0
-49 -7 -27 56 0
-49 -1 -28 51 0
-49 -2 -28 52 0
-49 -3 -28 53 0
-49 -4 -28 54 0
-49 -5 -28 55 0
-49 -6 -28 56 0
-49 -7 -28 50 0
-8 -29 -50 16 0
-8 -30 -50 16 0
-8 -31 -50 16 0
-8 -32 -50 16 0
-8 -33 -50 16 0
-8 -34 -50 16 0
-8 -35 -50 16 0
-8 -29 -51 16 0
-8 -30 -51 16 0
-8 -31 -51 16 0
-8 -32 -51 16 0
-8 -33 -51 16 0
-8 -34 -51 16 0
-8 -35 -51 16 0
-8 -29 -52 16 0
-8 -30 -52 16 0
-8 -31 -52 16 0
-8 -32 -52 16 0
-8 -33 -52 16 0
-8 -34 -52 16 0
-8 -35 -52 16 0
-8 -29 -53 16 0
-8 -30 -53 16 0
-8 -31 -53 16 0
-8 -32 -53 16 0
-8 -33 -53 16 0
-8 -34 -53 16 0
-8 -35 -53 16 0
-8 -29 -54 16 0
-8 -30 -54 16 0
-8 -31 -54 16 0
-8 -32 -54 16 0
-8 -33 -54 16 0
-8 -34 -54 16 0
-8 -35 -54 16 0
-8 -29 -55 16 0
-8 -30 -55 16 0
-8 -31 -55 16 0
-8 -32 -55 16 0
-8 -33 -55 16 0
-8 -34 -55 16 0
-8 -35 -55 16 0
-8 -29 -56 16 0
-8 -30 -56 16 0
-8 -31 -56 16 0
-8 -32 -56 16 0
-8 -33 -56 16 0
-8 -34 -56 16 0
-8 -35 -56 16 0
-9 -29 -50 16 0
-9 -30 -50 16 0
-9 -31 -50 16 0
-9 -32 -50 16 0
-9 -33 -50 16 0
-9 -34 -50 16 0
-9 -35 -50 16 0
-9 -29 -51 16 0
-9 -30 -51 17 0
-9 -31 -51 17 0
-9 -32 -51 17 0
-9 -33 -51 17 0
-9 -34 -51 17 0
-9 -35 -51 17 0
-9 -29 -52 16 0
-9 -30 -52 17 0
-9 -31 -52 17 0
-9 -32 -52 17 0
-9 -33 -52 17 0
-9 -34 -52 17 0
-9 -35 -52 17 0
-9 -29 -53 16 0
-9 -30 -53 17 0
-9 -31 -53 17 0
-9 -32 -53 17 0
-9 -33 -53 17 0
-9 -34 -53 17 0
-9 -35 -53 17 0
-9 -29 -54 16 0
-9 -30 -54 17 0
-9 -31 -54 17 0
-9 -32 -54 17 0
-9 -33 -54 17 0
-9 -34 -54 17 0
-9 -35 -54 17 0
-9 -29 -55 16 0
-9 -30 -55 17 0
-9 -31 -55 17 0
-9 -32 -55 17 0
-9 -33 -55 17 0
-9 -34 -55 17 0
-9 -35 -55 17 0
-9 -29 -56 16 0
-9 -30 -56 17 0
-9 -31 -56 17 0
-9 -32 -56 17 0
-9 -33 -56 17 0
-9 -34 -56 17 0
-9 -35 -56 17 0
-10 -29 -50 16 0
-10 -30 -50 16 0
-10 -31 -50 16 0
-10 -32 -50 16 0
-10 -33 -50 16 0
-10 -34 -50 16 0
-10 -35 -50 16 0
-10 -29 -51 16 0
-10 -30 -51 17 0
-10 -31 -51 17 0
-10 -32 -51 17 0
-10 -33 -51 17 0
-10 -34 -51 17 0
-10 -35 -51 17 0
-10 -29 -52 16 0
-10 -30 -52 17 0
-10 -31 -52 18 0
-10 -32 -52 18 0
-10 -33 -52 18 0
-10 -34 -52 18 0
-10 -35 -52 18 0
-10 -29 -53 16 0
-10 -30 -53 17 0
-10 -31 -53 18 0
-10 -32 -53 18 0
-10 -33 -53 18 0
-10 -34 -53 18 0
-10 -35 -53 18 0
-10 -29 -54 16 0
-10 -30 -54 17 0
-10 -31 -54 18 0
-10 -32 -54 18 0
-10 -33 -54 18 0
-10 -34 -54 18 0
-10 -35 -54 18 0
-10 -29 -55 16 0
-10 -30 -55 17 0
-10 -31 -55 18 0
-10 -32 -55 18 0
-10 -33 -55 18 0
-10 -34 -55 18 0
-10 -35 -55 18 0
-10 -29 -56 16 0
-10 -30 -56 17 0
-10 -31 -56 18 0
-10 -32 -56 18 0
-10 -33 -56 18 0
-10 -34 -56 18 0
-10 -35 -56 18 0
-11 -29 -50 16 0
-11 -30 -50 16 0
-11 -31 -50 16 0
-11 -32 -50 16 0
-11 -33 -50 16 0
-11 -34 -50 16 0
-11 -35 -50 16 0
-11 -29 -51 16 0
-11 -30 -51 17 0
-11 -31 -51 17 0
-11 -32 -51 17 0
-11 -33 -51 17 0
-11 -34 -51 17 0
-11 -35 -51 17 0
-11 -29 -52 16 0
-11 -30 -52 17 0
-11 -31 -52 18 0
-11 -32 -52 18 0
-11 -33 -52 18 0
-11 -34 -52 18 0
-11 -35 -52 18 0
-11 -29 -53 16 0
-11 -30 -53 17 0
-11 -31 -53 18 0
-11 -32 -53 19 0
-11 -33 -53 19 0
-11 -34 -53 19 0
-11 -35 -53 19 0
-11 -29 -54 16 0
-11 -30 -54 17 0
-11 -31 -54 18 0
-11 -32 -54 19 0
-11 -33 -54 19 0
-11 -34 -54 19 0
-11 -35 -54 19 0
-11 -29 -55 16 0
-11 -30 -55 17 0
-11 -31 -55 18 0
-11 -32 -55 19 0
-11 -33 -55 19 0
-11 -34 -55 19 0
-11 -35 -55 19 0
-11 -29 -56 16 0
-11 -30 -56 17 0
-11 -31 -56 18 0
-11 -32 -56 19 0
-11 -33 -56 19 0
-11 -34 -56 19 0
-11 -35 -56 19 0
-12 -29 -50 16 0
-12 -30 -50 16 0
-12 -31 -50 16 0
-12 -32 -50 16 0
-12 -33 -50 16 0
-12 -34 -50 16 0
-12 -35 -50 16 0
-12 -29 -51 16 0
-12 -30 -51 17 0
-12 -31 -51 17 0
-12 -32 -51 17 0
-12 -33 -51 17 0
-12 -34 -51 17 0
-12 -35 -51 17 0
-12 -29 -52 16 0
-12 -30 -52 17 0
-12 -31 -52 18 0
-12 -32 -52 18 0
-12 -33 -52 18 0
-12 -34 -52 18 0
-12 -35 -52 18 0
-12 -29 -53 16 0
-12 -30 -53 17 0
-12 -31 -53 18 0
-12 -32 -53 19 0
-12 -33 -53 19 0
-12 -34 -53 19 0
-12 -35 -53 19 0
-12 -29 -54 16 0
-12 -30 -54 17 0
-12 -31 -54 18 0
-12 -32 -54 19 0
-12 -33 -54 20 0
-12 -34 -54 20 0
-12 -35 -54 20 0
-12 -29 -55 16 0
-12 -30 -55 17 0
-12 -31 -55 18 0
-12 -32 -55 19 0
-12 -33 -55 20 0
-12 -34 -55 20 0
-12 -35 -55 20 0
-12 -29 -56 16 0
-12 -30 -56 17 0
-12 -31 -56 18 0
-12 -32 -56 19 0
-12 -33 -56 20 0
-12 -34 -56 20 0
-12 -35 -56 20 0
-13 -29 -50 16 0
-13 -30 -50 16 0
-13 -31 -50 16 0
-13 -32 -50 16 0
-13 -33 -50 16 0
-13 -34 -50 16 0
-13 -35 -50 16 0
-13 -29 -51 16 0
-13 -30 -51 17 0
-13 -31 -51 17 0
-13 -32 -51 17 0
-13 -33 -51 17 0
-13 -34 -51 17 0
-13 -35 -51 17 0
-13 -29 -52 16 0
-13 -30 -52 17 0
-13 -31 -52 18 0
-13 -32 -52 18 0
-13 -33 -52 18 0
-13 -34 -52 18 0
-13 -35 -52 18 0
-13 -29 -53 16 0
-13 -30 -53 17 0
-13 -31 -53 18 0
-13 -32 -53 19 0
-13 -33 -53 19 0
-13 -34 -53 19 0
-13 -35 -53 19 0
-13 -29 -54 16 0
-13 -30 -54 17 0
-13 -31 -54 18 0
-13 -32 -54 19 0
-13 -33 -54 20 0
-13 -34 -54 20 0
-13 -35 -54 20 0
-13 -29 -55 16 0
-13 -30 -55 17 0
-13 -31 -55 18 0
-13 -32 -55 19 0
-13 -33 -55 20 0
-13 -34 -55 21 0
-13 -35 -55 21 0
-13 -29 -56 16 0
-13 -30 -56 17 0
-13 -31 -56 18 0
-13 -32 -56 19 0
-13 -33 -56 20 0
-13 -34 -56 21 0
-13 -35 -56 21 0
-14 -29 -50 16 0
-14 -30 -50 16 0
-14 -31 -50 16 0
-14 -32 -50 16 0
-14 -33 -50 16 0
-14 -34 -50 16 0
-14 -35 -50 16 0
-14 -29 -51 16 0
-14 -30 -51 17 0
-14 -31 -51 17 0
-14 -32 -51 17 0
-14 -33 -51 17 0
-14 -34 -51 17 0
-14 -35 -51 17 0
-14 -29 -52 16 0
-14 -30 -52 17 0
-14 -31 -52 18 0
-14 -32 -52 18 0
-14 -33 -52 18 0
-14 -34 -52 18 0
-14 -35 -52 18 0
-14 -29 -53 16 0
-14 -30 -53 17 0
-14 -31 -53 18 0
-14 -32 -53 19 0
-14 -33 -53 19 0
-14 -34 -53 19 0
-14 -35 -53 19 0
-14 -29 -54 16 0
-14 -30 -54 17 0
-14 -31 -54 18 0
-14 -32 -54 19 0
-14 -33 -54 20 0
-14 -34 -54 20 0
-14 -35 -54 20 0
-14 -29 -55 16 0
-14 -30 -55 17 0
-14 -31 -55 18 0
-14 -32 -55 19 0
-14 -33 -55 20 0
-14 -34 -55 21 0
-14 -35 -55 21 0
-14 -29 -56 16 0
-14 -30 -56 17 0
-14 -31 -56 18 0
-14 -32 -56 19 0
-14 -33 -56 20 0
-14 -34 -56 21 0
-14 -35 -56 15 0
-29 -8 -50 37 0
-29 -9 -50 37 0
-29 -10 -50 37 0
-29 -11 -50 37 0
-29 -12 -50 37 0
-29 -13 -50 37 0
-29 -14 -50 37 0
-29 -8 -51 37 0
-29 -9 -51 37 0
-29 -10 -51 37 0
-29 -11 -51 37 0
-29 -12 -51 37 0
-29 -13 -51 37 0
-29 -14 -51 37 0
-29 -8 -52 37 0
-29 -9 -52 37 0
-29 -10 -52 37 0
-29 -11 -52 37 0
-29 -12 -52 37 0
-29 -13 -52 37 0
-29 -14 -52 37 0
-29 -8 -53 37 0
-29 -9 -53 37 0
-29 -10 -53 37 0
-29 -11 -53 37 0
-29 -12 -53 37 0
-29 -13 -53 37 0
-29 -14 -53 37 0
-29 -8 -54 37 0
-29 -9 -54 37 0
-29 -10 -54 37 0
-29 -11 -54 37 0
-29 -12 -54 37 0
-29 -13 -54 37 0
-29 -14 -54 37 0
-29 -8 -55 37 0
-29 -9 -55 37 0
-29 -10 -55 37 0
-29 -11 -55 37 0
-29 -12 -55 37 0
-29 -13 -55 37 0
-29 -14 -55 37 0
-29 -8 -56 37 0
-29 -9 -56 37 0
-29 -10 -56 37 0
-29 -11 -56 37 0
-29 -12 -56 37 0
-29 -13 -56 37 0
-29 -14 -56 37 0
-30 -8 -50 37 0
-30 -9 -50 37 0
-30 -10 -50 37 0
-30 -11 -50 37 0
-30 -12 -50 37 0
-30 -13 -50 37 0
-30 -14 -50 37 0
-30 -8 -51 37 0
-30 -9 -51 38 0
-30 -10 -51 38 0
-30 -11 -51 38 0
-30 -12 -51 38 0
-30 -13 -51 38 0
-30 -14 -51 38 0
-30 -8 -52 37 0
-30 -9 -52 38 0
-30 -10 -52 38 0
-30 -11 -52 38 0
-30 -12 -52 38 0
-30 -13 -52 38 0
-30 -14 -52 38 0
-30 -8 -53 37 0
-30 -9 -53 38 0
-30 -10 -53 38 0
-30 -11 -53 38 0
-30 -12 -53 38 0
-30 -13 -53 38 0
-30 -14 -53 38 0
-30 -8 -54 37 0
-30 -9 -54 38 0
-30 -10 -54 38 0
-30 -11 -54 38 0
-30 -12 -54 38 0
-30 -13 -54 38 0
-30 -14 -54 38 0
-30 -8 -55 37 0
-30 -9 -55 38 0
-30 -10 -55 38 0
-30 -11 -55 38 0
-30 -12 -55 38 0
-30 -13 -55 38 0
-30 -14 -55 38 0
-30 -8 -56 37 0
-30 -9 -56 38 0
-30 -10 -56 38 0
-30 -11 -56 38 0
-30 -12 -56 38 0
-30 -13 -56 38 0
-30 -14 -56 38 0
-31 -8 -50 37 0
-31 -9 -50 37 0
-31 -10 -50 37 0
-31 -11 -50 37 0
-31 -12 -50 37 0
-31 -13 -50 37 0
-31 -14 -50 37 0
-31 -8 -51 37 0
-31 -9 -51 38 0
-31 -10 -51 38 0
-31 -11 -51 38 0
-31 -12 -51 38 0
-31 -13 -51 38 0
-31 -14 -51 38 0
-31 -8 -52 37 0
-31 -9 -52 38 0
-31 -10 -52 39 0
-31 -11 -52 39 0
-31 -12 -52 39 0
-31 -13 -52 39 0
-31 -14 -52 39 0
-31 -8 -53 37 0
-31 -9 -53 38 0
-31 -10 -53 39 0
-31 -11 -53 39 0
-31 -12 -53 39 0
-31 -13 -53 39 0
-31 -14 -53 39 0
-31 -8 -54 37 0
-31 -9 -54 38 0
-31 -10 -54 39 0
-31 -11 -54 39 0
-31 -12 -54 39 0
-31 -13 -54 39 0
-31 -14 -54 39 0
-31 -8 -55 37 0
-31 -9 -55 38 0
-31 -10 -55 39 0
-31 -11 -55 39 0
-31 -12 -55 39 0
-31 -13 -55 39 0
-31 -14 -55 39 0
-31 -8 -56 37 0
-31 -9 -56 38 0
-31 -10 -56 39 0
-31 -11 -56 39 0
-31 -12 -56 39 0
-31 -13 -56 39 0
-31 -14 -56 39 0
-32 -8 -50 37 0
-32 -9 -50 37 0
-32 -10 -50 37 0
-32 -11 -50 37 0
-32 -12 -50 37 0
-32 -13 -50 37 0
-32 -14 -50 37 0
-32 -8 -51 37 0
-32 -9 -51 38 0
-32 -10 -51 38 0
-32 -11 -51 38 0
-32 -12 -51 38 0
-32 -13 -51 38 0
-32 -14 -51 38 0
-32 -8 -52 37 0
-32 -9 -52 38 0
-32 -10 -52 39 0
-32 -11 -52 39 0
-32 -12 -52 39 0
-32 -13 -52 39 0
-32 -14 -52 39 0
-32 -8 -53 37 0
-32 -9 -53 38 0
-32 -10 -53 39 0
-32 -11 -53 40 0
-32 -12 -53 40 0
-32 -13 -53 40 0
-32 -14 -53 40 0
-32 -8 -54 37 0
-32 -9 -54 38 0
-32 -10 -54 39 0
-32 -11 -54 40 0
-32 -12 -54 40 0
-32 -13 -54 40 0
-32 -14 -54 40 0
-32 -8 -55 37 0
-32 -9 -55 38 0
-32 -10 -55 39 0
-32 -11 -55 40 0
-32 -12 -55 40 0
-32 -13 -55 40 0
-32 -14 -55 40 0
-32 -8 -56 37 0
-32 -9 -56 38 0
-32 -10 -56 39 0
-32 -11 -56 40 0
-32 -12 -56 40 0
-32 -13 -56 40 0
-32 -14 -56 40 0
-33 -8 -50 37 0
-33 -9 -50 37 0
-33 -10 -50 37 0
-33 -11 -50 37 0
-33 -12 -50 37 0
-33 -13 -50 37 0
-33 -14 -50 37 0
-33 -8 -51 37 0
-33 -9 -51 38 0
-33 -10 -51 38 0
-33 -11 -51 38 0
-33 -12 -51 38 0
-33 -13 -51 38 0
-33 -14 -51 38 0
-33 -8 -52 37 0
-33 -9 -52 38 0
-33 -10 -52 39 0
-33 -11 -52 39 0
-33 -12 -52 39 0
-33 -13 -52 39 0
-33 -14 -52 39 0
-33 -8 -53 37 0
-33 -9 -53 38 0
-33 -10 -53 39 0
-33 -11 -53 40 0
-33 -12 -53 40 0
-33 -13 -53 40 0
-33 -14 -53 40 0
-33 -8 -54 37 0
-33 -9 -54 38 0
-33 -10 -54 39 0
-33 -11 -54 40 0
-33 -12 -54 41 0
-33 -13 -54 41 0
-33 -14 -54 41 0
-33 -8 -55 37 0
-33 -9 -55 38 0
-33 -10 -55 39 0
-33 -11 -55 40 0
-33 -12 -55 41 0
-33 -13 -55 41 0
-33 -14 -55 41 0
-33 -8 -56 37 0
-33 -9 -56 38 0
-33 -10 -56 39 0
-33 -11 -56 40 0
-33 -12 -56 41 0
-33 -13 -56 41 0
-33 -14 -56 41 0
-34 -8 -50 37 0
-34 -9 -50 37 0
-34 -10 -50 37 0
-34 -11 -50 37 0
-34 -12 -50 37 0
-34 -13 -50 37 0
-34 -14 -50 37 0
-34 -8 -51 37 0
-34 -9 -51 38 0
-34 -10 -51 38 0
-34 -11 -51 38 0
-34 -12 -51 38 0
-34 -13 -51 38 0
-34 -14 -51 38 0
-34 -8 -52 37 0
-34 -9 -52 38 0
-34 -10 -52 39 0
-34 -11 -52 39 0
-34 -12 -52 39 0
-34 -13 -52 39 0
-34 -14 -52 39 0
-34 -8 -53 37 0
-34 -9 -53 38 0
-34 -10 -53 39 0
-34 -11 -53 40 0
-34 -12 -53 40 0
-34 -13 -53 40 0
-34 -14 -53 40 0
-34 -8 -54 37 0
-34 -9 -54 38 0
-34 -10 -54 39 0
-34 -11 -54 40 0
-34 -12 -54 41 0
-34 -13 -54 41 0
-34 -14 -54 41 0
-34 -8 -55 37 0
-34 -9 -55 38 0
-34 -10 -55 39 0
-34 -11 -55 40 0
-34 -12 -55 41 0
-34 -13 -55 42 0
-34 -14 -55 42 0
-34 -8 -56 37 0
-34 -9 -56 38 0
-34 -10 -56 39 0
-34 -11 -56 40 0
-34 -12 -56 41 0
-34 -13 -56 42 0
-34 -14 -56 42 0
-35 -8 -50 37 0
-35 -9 -50 37 0
-35 -10 -50 37 0
-35 -11 -50 37 0
-35 -12 -50 37 0
-35 -13 -50 37 0
-35 -14 -50 37 0
-35 -8 -51 37 0
-35 -9 -51 38 0
-35 -10 -51 38 0
-35 -11 -51 38 0
-35 -12 -51 38 0
-35 -13 -51 38 0
-35 -14 -51 38 0
-35 -8 -52 37 0
-35 -9 -52 38 0
-35 -10 -52 39 0
-35 -11 -52 39 0
-35 -12 -52 39 0
-35 -13 -52 39 0
-35 -14 -52 39 0
-35 -8 -53 37 0
-35 -9 -53 38 0
-35 -10 -53 39 0
-35 -11 -53 40 0
-35 -12 -53 40 0
-35 -13 -53 40 0
-35 -14 -53 40 0
-35 -8 -54 37 0
-35 -9 -54 38 0
-35 -10 -54 39 0
-35 -11 -54 40 0
-35 -12 -54 41 0
-35 -13 -54 41 0
-35 -14 -54 41 0
-35 -8 -55 37 0
-35 -9 -55 38 0
-35 -10 -55 39 0
-35 -11 -55 40 0
-35 -12 -55 41 0
-35 -13 -55 42 0
-35 -14 -55 42 0
-35 -8 -56 37 0
-35 -9 -56 38 0
-35 -10 -56 39 0
-35 -11 -56 40 0
-35 -12 -56 41 0
-35 -13 -56 42 0
-35 -14 -56 36 0
-50 -8 -29 58 0
-50 -9 -29 58 0
-50 -10 -29 58 0
-50 -11 -29 58 0
-50 -12 -29 58 0
-50 -13 -29 58 0
-50 -14 -29 58 0
-50 -8 -30 58 0
-50 -9 -30 58 0
-50 -10 -30 58 0
-50 -11 -30 58 0
-50 -12 -30 58 0
-50 -13 -30 58 0
-50 -14 -30 58 0
-50 -8 -31 58 0
-50 -9 -31 58 0
-50 -10 -31 58 0
-50 -11 -31 58 0
-50 -12 -31 58 0
-50 -13 -31 58 0
-50 -14 -31 58 0
-50 -8 -32 58 0
-50 -9 -32 58 0
-50 -10 -32 58 0
-50 -11 -32 58 0
-50 -12 -32 58 0
-50 -13 -32 58 0
-50 -14 -32 58 0
-50 -8 -33 58 0
-50 -9 -33 58 0
-50 -10 -33 58 0
-50 -11 -33 58 0
-50 -12 -33 58 0
-50 -13 -33 58 0
-50 -14 -33 58 0
-50 -8 -34 58 0
-50 -9 -34 58 0
-50 -10 -34 58 0
-50 -11 -34 58 0
-50 -12 -34 58 0
-50 -13 -34 58 0
-50 -14 -34 58 0
-50 -8 -35 58 0
-50 -9 -35 58 0
-50 -10 -35 58 0
-50 -11 -35 58 0
-50 -12 -35 58 0
-50 -13 -35 58 0
-50 -14 -35 58 0
-51 -8 -29 58 0
-51 -9 -29 58 0
-51 -10 -29 58 0
-51 -11 -29 58 0
-51 -12 -29 58 0
-51 -13 -29 58 0
-51 -14 -29 58 0
-51 -8 -30 58 0
-51 -9 -30 59 0
-51 -10 -30 59 0
-51 -11 -30 59 0
-51 -12 -30 59 0
-51 -13 -30 59 0
-51 -14 -30 59 0
-51 -8 -31 58 0
-51 -9 -31 59 0
-51 -10 -31 59 0
-51 -11 -31 59 0
-51 -12 -31 59 0
-51 -13 -31 59 0
-51 -14 -31 59 0
-51 -8 -32 58 0
-51 -9 -32 59 0
-51 -10 -32 59 0
-51 -11 -32 59 0
-51 -12 -32 59 0
-51 -13 -32 59 0
-51 -14 -32 59 0
-51 -8 -33 58 0
-51 -9 -33 59 0
-51 -10 -33 59 0
-51 -11 -33 59 0
-51 -12 -33 59 0
-51 -13 -33 59 0
-51 -14 -33 59 0
-51 -8 -34 58 0
-51 -9 -34 59 0
-51 -10 -34 59 0
-51 -11 -34 59 0
-51 -12 -34 59 0
-51 -13 -34 59 0
-51 -14 -34 59 0
-51 -8 -35 58 0
-51 -9 -35 59 0
-51 -10 -35 59 0
-51 -11 -35 59 0
-51 -12 -35 59 0
-51 -13 -35 59 0
-51 -14 -35 59 0
-52 -8 -29 58 0
-52 -9 -29 58 0
-52 -10 -29 58 0
-52 -11 -29 58 0
-52 -12 -29 58 0
-52 -13 -29 58 0
-52 -14 -29 58 0
-52 -8 -30 58 0
-52 -9 -30 59 0
-52 -10 -30 59 0
-52 -11 -30 59 0
-52 -12 -30 59 0
-52 -13 -30 59 0
-52 -14 -30 59 0
-52 -8 -31 58 0
-52 -9 -31 59 0
-52 -10 -31 60 0
-52 -11 -31 60 0
-52 -12 -31 60 0
-52 -13 -31 60 0
-52 -14 -31 60 0
-52 -8 -32 58 0
-52 -9 -32 59 0
-52 -10 -32 60 0
-52 -11 -32 60 0
-52 -12 -32 60 0
-52 -13 -32 60 0
-52 -14 -32 60 0
-52 -8 -33 58 0
-52 -9 -33 59 0
-52 -10 -33 60 0
-52 -11 -33 60 0
-52 -12 -33 60 0
-52 -13 -33 60 0
-52 -14 -33 60 0
-52 -8 -34 58 0
-52 -9 -34 59 0
-52 -10 -34 60 0
-52 -11 -34 60 0
-52 -12 -34 60 0
-52 -13 -34 60 0
-52 -14 -34 60 0
-52 -8 -35 58 0
-52 -9 -35 59 0
-52 -10 -35 60 0
-52 -11 -35 60 0
-52 -12 -35 60 0
-52 -13 -35 60 0
-52 -14 -35 60 0
-53 -8 -29 58 0
-53 -9 -29 58 0
-53 -10 -29 58 0
-53 -11 -29 58 0
-53 -12 -29 58 0
-53 -13 -29 58 0
-53 -14 -29 58 0
-53 -8 -30 58 0
-53 -9 -30 59 0
-53 -10 -30 59 0
-53 -11 -30 59 0
-53 -12 -30 59 0
-53 -13 -30 59 0
-53 -14 -30 59 0
-53 -8 -31 58 0
-53 -9 -31 59 0
-53 -10 -31 60 0
-53 -11 -31 60 0
-53 -12 -31 60 0
-53 -13 -31 60 0
-53 -14 -31 60 0
-53 -8 -32 58 0
-53 -9 -32 59 0
-53 -10 -32 60 0
-53 -11 -32 61 0
-53 -12 -32 61 0
-53 -13 -32 61 0
-53 -14 -32 61 0
-53 -8 -33 58 0
-53 -9 -33 59 0
-53 -10 -33 60 0
-53 -11 -33 61 0
-53 -12 -33 61 0
-53 -13 -33 61 0
-53 -14 -33 61 0
-53 -8 -34 58 0
-53 -9 -34 59 0
-53 -10 -34 60 0
-53 -11 -34 61 0
-53 -12 -34 61 0
-53 -13 -34 61 0
-53 -14 -34 61 0
-53 -8 -35 58 0
-53 -9 -35 59 0
-53 -10 -35 60 0
-53 -11 -35 61 0
-53 -12 -35 61 0
-53 -13 -35 61 0
-53 -14 -35 61 0
-54 -8 -29 58 0
-54 -9 -29 58 0
-54 -10 -29 58 0
-54 -11 -29 58 0
-54 -12 -29 58 0
-54 -13 -29 58 0
-54 -14 -29 58 0
-54 -8 -30 58 0
-54 -9 -30 59 0
-54 -10 -30 59 0
-54 -11 -30 59 0
-54 -12 -30 59 0
-54 -13 -30 59 0
-54 -14 -30 59 0
-54 -8 -31 58 0
-54 -9 -31 59 0
-54 -10 -31 60 0
-54 -11 -31 60 0
-54 -12 -31 60 0
-54 -13 -31 60 0
-54 -14 -31 60 0
-54 -8 -32 58 0
-54 -9 -32 59 0
-54 -10 -32 60 0
-54 -11 -32 61 0
-54 -12 -32 61 0
-54 -13 -32 61 0
-54 -14 -32 61 0
-54 -8 -33 58 0
-54 -9 -33 59 0
-54 -10 -33 60 0
-54 -11 -33 61 0
-54 -12 -33 62 0
-54 -13 -33 62 0
-54 -14 -33 62 0
-54 -8 -34 58 0
-54 -9 -34 59 0
-54 -10 -34 60 0
-54 -11 -34 61 0
-54 -12 -34 62 0
-54 -13 -34 62 0
-54 -14 -34 62 0
-54 -8 -35 58 0
-54 -9 -35 59 0
-54 -10 -35 60 0
-54 -11 -35 61 0
-54 -12 -35 62 0
-54 -13 -35 62 0
-54 -14 -35 62 0
-55 -8 -29 58 0
-55 -9 -29 58 0
-55 -10 -29 58 0
-55 -11 -29 58 0
-55 -12 -29 58 0
-55 -13 -29 58 0
-55 -14 -29 58 0
-55 -8 -30 58 0
-55 -9 -30 59 0
-55 -10 -30 59 0
-55 -11 -30 59 0
-55 -12 -30 59 0
-55 -13 -30 59 0
-55 -14 -30 59 0
-55 -8 -31 58 0
-55 -9 -31 59 0
-55 -10 -31 60 0
-55 -11 -31 60 0
-55 -12 -31 60 0
-55 -13 -31 60 0
-55 -14 -31 60 0
-55 -8 -32 58 0
-55 -9 -32 59 0
-55 -10 -32 60 0
-55 -11 -32 61 0
-55 -12 -32 61 0
-55 -13 -32 61 0
-55 -14 -32 61 0
-55 -8 -33 58 0
-55 -9 -33 59 0
-55 -10 -33 60 0
-55 -11 -33 61 0
-55 -12 -33 62 0
-55 -13 -33 62 0
-55 -14 -33 62 0
-55 -8 -34 58 0
-55 -9 -34 59 0
-55 -10 -34 60 0
-55 -11 -34 61 0
-55 -12 -34 62 0
-55 -13 -34 63 0
-55 -14 -34 63 0
-55 -8 -35 58 0
-55 -9 -35 59 0
-55 -10 -35 60 0
-55 -11 -35 61 0
-55 -12 -35 62 0
-55 -13 -35 63 0
-55 -14 -35 63 0
-56 -8 -29 58 0
-56 -9 -29 58 0
-56 -10 -29 58 0
-56 -11 -29 58 0
-56 -12 -29 58 0
-56 -13 -29 58 0
-56 -14 -29 58 0
-56 -8 -30 58 0
-56 -9 -30 59 0
-56 -10 -30 59 0
-56 -11 -30 59 0
-56 -12 -30 59 0
-56 -13 -30 59 0
-56 -14 -30 59 0
-56 -8 -31 58 0
-56 -9 -31 59 0
-56 -10 -31 60 0
-56 -11 -31 60 0
-56 -12 -31 60 0
-56 -13 -31 60 0
-56 -14 -31 60 0
-56 -8 -32 58 0
-56 -9 -32 59 0
-56 -10 -32 60 0
-56 -11 -32 61 0
-56 -12 -32 61 0
-56 -13 -32 61 0
-56 -14 -32 61 0
-56 -8 -33 58 0
-56 -9 -33 59 0
-56 -10 -33 60 0
-56 -11 -33 61 0
-56 -12 -33 62 0
-56 -13 -33 62 0
-56 -14 -33 62 0
-56 -8 -34 58 0
-56 -9 -34 59 0
-56 -10 -34 60 0
-56 -11 -34 61 0
-56 -12 -34 62 0
-56 -13 -34 63 0
-56 -14 -34 63 0
-56 -8 -35 58 0
-56 -9 -35 59 0
-56 -10 -35 60 0
-56 -11 -35 61 0
-56 -12 -35 62 0
-56 -13 -35 63 0
-56 -14 -35 57 0
-15 -36 -57 0
-16 -37 -58 0
-17 -38 -59 0
-18 -39 -60 0
-19 -40 -61 0
-20 -41 -62 0
-21 -42 -63 0
-1 -22 -43 0
-2 -23 -44 0
-3 -24 -45 0
-4 -25 -46 0
-5 -26 -47 0
-6 -27 -48 0
-7 -28 -49 0
